(declare-const X String)
; \x22reaction\x2Etxt\x22\d+sErverdist\x2Eatlas\x2Dia\x2EcomUser-Agent\x3A
(assert (not (str.in_re X (re.++ (str.to_re "\u{22}reaction.txt\u{22}") (re.+ (re.range "0" "9")) (str.to_re "sErverdist.atlas-ia.comUser-Agent:\u{a}")))))
(check-sat)
